% Instância do TP1: i08b

% parâmetros
jobs = 7;
tasks = 2;

% matriz de durações das tasks
d = [|
 1,  8      % job 1
|2,  7      % job 2
|3,  6      % job 3
|4,  5      % job 4
|5,  4      % job 5
|6,  3      % job 6
|7,  2 |];  % job 7